p cnf 49 110
1 2 3 4 5 0
1 2 3 -4 12 0
1 2 -3 4 8 0
1 2 -3 -4 7 0
1 -2 3 4 6 0
1 -2 3 -4 9 0
1 -2 -3 4 10 0
1 -2 -3 -4 11 0
-1 2 3 4 7 0
-1 2 3 -4 5 0
13 14 15 16 1 2 3 4 17 0
13 14 15 16 1 2 3 -4 18 0
13 14 15 16 1 2 -3 4 34 0
13 14 15 16 1 2 -3 -4 35 0
13 14 15 16 1 -2 3 4 18 0
13 14 15 16 1 -2 3 -4 32 0
13 14 15 16 1 -2 -3 4 18 0
13 14 15 16 1 -2 -3 -4 36 0
13 14 15 16 -1 2 3 4 18 0
13 14 15 16 -1 2 3 -4 18 0
13 14 15 -16 1 2 3 4 37 0
13 14 15 -16 1 2 3 -4 18 0
13 14 15 -16 1 2 -3 4 33 0
13 14 15 -16 1 2 -3 -4 18 0
13 14 15 -16 1 -2 3 4 18 0
13 14 15 -16 1 -2 3 -4 18 0
13 14 15 -16 1 -2 -3 4 19 0
13 14 15 -16 1 -2 -3 -4 18 0
13 14 15 -16 -1 2 3 4 18 0
13 14 15 -16 -1 2 3 -4 18 0
13 14 -15 16 1 2 3 4 37 0
13 14 -15 16 1 2 3 -4 20 0
13 14 -15 16 1 2 -3 4 33 0
13 14 -15 16 1 2 -3 -4 18 0
13 14 -15 16 1 -2 3 4 18 0
13 14 -15 16 1 -2 3 -4 18 0
13 14 -15 16 1 -2 -3 4 21 0
13 14 -15 16 1 -2 -3 -4 22 0
13 14 -15 16 -1 2 3 4 39 0
13 14 -15 16 -1 2 3 -4 18 0
13 14 -15 -16 1 2 3 4 37 0
13 14 -15 -16 1 2 3 -4 23 0
13 14 -15 -16 1 2 -3 4 38 0
13 14 -15 -16 1 2 -3 -4 39 0
13 14 -15 -16 1 -2 3 4 31 0
13 14 -15 -16 1 -2 3 -4 32 0
13 14 -15 -16 1 -2 -3 4 18 0
13 14 -15 -16 1 -2 -3 -4 36 0
13 14 -15 -16 -1 2 3 4 39 0
13 14 -15 -16 -1 2 3 -4 18 0
13 -14 15 16 1 2 3 4 37 0
13 -14 15 16 1 2 3 -4 24 0
13 -14 15 16 1 2 -3 4 25 0
13 -14 15 16 1 2 -3 -4 26 0
13 -14 15 16 1 -2 3 4 18 0
13 -14 15 16 1 -2 3 -4 32 0
13 -14 15 16 1 -2 -3 4 19 0
13 -14 15 16 1 -2 -3 -4 27 0
13 -14 15 16 -1 2 3 4 43 0
13 -14 15 16 -1 2 3 -4 18 0
13 -14 15 -16 1 2 3 4 18 0
13 -14 15 -16 1 2 3 -4 24 0
13 -14 15 -16 1 2 -3 4 44 0
13 -14 15 -16 1 2 -3 -4 46 0
13 -14 15 -16 1 -2 3 4 18 0
13 -14 15 -16 1 -2 3 -4 40 0
13 -14 15 -16 1 -2 -3 4 19 0
13 -14 15 -16 1 -2 -3 -4 36 0
13 -14 15 -16 -1 2 3 4 41 0
13 -14 15 -16 -1 2 3 -4 37 0
13 -14 -15 16 1 2 3 4 18 0
13 -14 -15 16 1 2 3 -4 18 0
13 -14 -15 16 1 2 -3 4 34 0
13 -14 -15 16 1 2 -3 -4 46 0
13 -14 -15 16 1 -2 3 4 49 0
13 -14 -15 16 1 -2 3 -4 32 0
13 -14 -15 16 1 -2 -3 4 19 0
13 -14 -15 16 1 -2 -3 -4 22 0
13 -14 -15 16 -1 2 3 4 43 0
13 -14 -15 16 -1 2 3 -4 37 0
13 -14 -15 -16 1 2 3 4 18 0
13 -14 -15 -16 1 2 3 -4 18 0
13 -14 -15 -16 1 2 -3 4 18 0
13 -14 -15 -16 1 2 -3 -4 35 0
13 -14 -15 -16 1 -2 3 4 47 0
13 -14 -15 -16 1 -2 3 -4 28 0
13 -14 -15 -16 1 -2 -3 4 30 0
13 -14 -15 -16 1 -2 -3 -4 45 0
13 -14 -15 -16 -1 2 3 4 35 0
13 -14 -15 -16 -1 2 3 -4 37 0
-13 14 15 16 1 2 3 4 18 0
-13 14 15 16 1 2 3 -4 18 0
-13 14 15 16 1 2 -3 4 18 0
-13 14 15 16 1 2 -3 -4 18 0
-13 14 15 16 1 -2 3 4 42 0
-13 14 15 16 1 -2 3 -4 18 0
-13 14 15 16 1 -2 -3 4 19 0
-13 14 15 16 1 -2 -3 -4 29 0
-13 14 15 16 -1 2 3 4 35 0
-13 14 15 16 -1 2 3 -4 37 0
-13 14 15 -16 1 2 3 4 18 0
-13 14 15 -16 1 2 3 -4 18 0
-13 14 15 -16 1 2 -3 4 18 0
-13 14 15 -16 1 2 -3 -4 18 0
-13 14 15 -16 1 -2 3 4 18 0
-13 14 15 -16 1 -2 3 -4 32 0
-13 14 15 -16 1 -2 -3 4 48 0
-13 14 15 -16 1 -2 -3 -4 22 0
-13 14 15 -16 -1 2 3 4 26 0
-13 14 15 -16 -1 2 3 -4 17 0
